n_res = 4;
rcap = [11, 10, 50, 33];
rtype = [1, 1, 2, 2];
n_tasks = 12;
modes = [ {1, 2, 3}, {4, 5, 6}, {7, 8, 9}, {10, 11, 12}, {13, 14, 15}, {16, 17, 18}, {19, 20, 21}, {22, 23, 24}, {25, 26, 27}, {28, 29, 30}, {31, 32, 33}, {34, 35, 36} ];
succ = [ {8, 9}, {5, 6, 9}, {4, 7}, {5, 8, 11}, {10, 12}, {8, 11}, {9, 10}, {10, 12}, {11, 12}, {}, {}, {} ];
n_opt = 36;
dur = [2, 4, 6, 1, 9, 10, 2, 6, 9, 8, 8, 10, 1, 3, 5, 1, 3, 7, 2, 6, 7, 1, 3, 10, 2, 5, 7, 2, 6, 6, 2, 3, 7, 2, 8, 10];
rreq = [|  5,  4,  4,  3,  3,  3,  8,  7,  7,  4,  4,  3,  7,  7,  6,  4,  4,  4, 10,  9,  9,  5,  4,  3,  5,  4,  4,  4,  4,  4,  6,  3,  2,  3,  2,  1
        |  5,  5,  5,  4,  4,  4,  5,  5,  4,  6,  6,  5,  6,  5,  2,  7,  5,  2,  3,  3,  3,  9,  6,  4,  8,  5,  4,  7,  6,  6,  6,  6,  5,  6,  5,  5
        |  0,  6,  0,  9,  8,  6,  0,  0,  2,  0,  6,  0,  8,  7,  7,  0,  3,  1,  9,  9,  0,  8,  0,  4,  8,  8,  8,  0, 10,  0,  0,  0,  0,  6,  5,  3
        |  4,  0,  3,  0,  0,  0,  9,  7,  0,  8,  0, 10,  0,  0,  0,  8,  0,  0,  0,  0,  4,  0,  8,  0,  0,  0,  0,  8,  0,  6,  8,  8,  7,  0,  0,  0 |];
